c cksystemsgroup.github.io/unicorn
c CNF contains a total of 495 clauses.
c CNF contains a total of 119 variables.
c CNF clauses cover 1 bad states.
c Variable name mapping (17 names):
c   1: input[bit=0]
c   2: input[bit=0]
c   4: input[bit=1]
c   6: input[bit=1]
c   12: input[bit=2]
c   17: input[bit=2]
c   22: input[bit=3]
c   30: input[bit=3]
c   36: input[bit=4]
c   47: input[bit=4]
c   52: input[bit=5]
c   66: input[bit=5]
c   72: input[bit=6]
c   89: input[bit=6]
c   94: input[bit=7]
c   114: input[bit=7]
c   119: ?
p cnf 119 495
-1 -2 3 0
1 -3 0
2 -3 0
-4 -2 5 0
4 -5 0
2 -5 0
-1 -6 7 0
1 -7 0
6 -7 0
-8 0
5 7 8 -9 0
5 7 -8 9 0
5 -7 8 9 0
5 -7 -8 -9 0
-5 7 8 9 0
-5 7 -8 -9 0
-5 -7 8 -9 0
-5 -7 -8 9 0
-9 -10 0
9 10 0
-3 -10 11 0
3 -11 0
10 -11 0
-12 -2 13 0
12 -13 0
2 -13 0
-4 -6 14 0
4 -14 0
6 -14 0
5 7 -15 0
5 8 -15 0
-7 -8 15 0
7 8 -15 0
-5 -8 15 0
-5 -7 15 0
13 14 15 -16 0
13 14 -15 16 0
13 -14 15 16 0
13 -14 -15 -16 0
-13 14 15 16 0
-13 14 -15 -16 0
-13 -14 15 -16 0
-13 -14 -15 16 0
-1 -17 18 0
1 -18 0
17 -18 0
-19 0
16 18 19 -20 0
16 18 -19 20 0
16 -18 19 20 0
16 -18 -19 -20 0
-16 18 19 20 0
-16 18 -19 -20 0
-16 -18 19 -20 0
-16 -18 -19 20 0
-11 -20 21 0
11 -21 0
20 -21 0
-22 -2 23 0
22 -23 0
2 -23 0
-12 -6 24 0
12 -24 0
6 -24 0
13 14 -25 0
13 15 -25 0
-14 -15 25 0
14 15 -25 0
-13 -15 25 0
-13 -14 25 0
23 24 25 -26 0
23 24 -25 26 0
23 -24 25 26 0
23 -24 -25 -26 0
-23 24 25 26 0
-23 24 -25 -26 0
-23 -24 25 -26 0
-23 -24 -25 26 0
-4 -17 27 0
4 -27 0
17 -27 0
16 18 -28 0
16 19 -28 0
-18 -19 28 0
18 19 -28 0
-16 -19 28 0
-16 -18 28 0
26 27 28 -29 0
26 27 -28 29 0
26 -27 28 29 0
26 -27 -28 -29 0
-26 27 28 29 0
-26 27 -28 -29 0
-26 -27 28 -29 0
-26 -27 -28 29 0
-1 -30 31 0
1 -31 0
30 -31 0
-32 0
29 31 32 -33 0
29 31 -32 33 0
29 -31 32 33 0
29 -31 -32 -33 0
-29 31 32 33 0
-29 31 -32 -33 0
-29 -31 32 -33 0
-29 -31 -32 33 0
-33 -34 0
33 34 0
-21 -34 35 0
21 -35 0
34 -35 0
-36 -2 37 0
36 -37 0
2 -37 0
-22 -6 38 0
22 -38 0
6 -38 0
23 24 -39 0
23 25 -39 0
-24 -25 39 0
24 25 -39 0
-23 -25 39 0
-23 -24 39 0
37 38 39 -40 0
37 38 -39 40 0
37 -38 39 40 0
37 -38 -39 -40 0
-37 38 39 40 0
-37 38 -39 -40 0
-37 -38 39 -40 0
-37 -38 -39 40 0
-12 -17 41 0
12 -41 0
17 -41 0
26 27 -42 0
26 28 -42 0
-27 -28 42 0
27 28 -42 0
-26 -28 42 0
-26 -27 42 0
40 41 42 -43 0
40 41 -42 43 0
40 -41 42 43 0
40 -41 -42 -43 0
-40 41 42 43 0
-40 41 -42 -43 0
-40 -41 42 -43 0
-40 -41 -42 43 0
-4 -30 44 0
4 -44 0
30 -44 0
29 31 -45 0
29 32 -45 0
-31 -32 45 0
31 32 -45 0
-29 -32 45 0
-29 -31 45 0
43 44 45 -46 0
43 44 -45 46 0
43 -44 45 46 0
43 -44 -45 -46 0
-43 44 45 46 0
-43 44 -45 -46 0
-43 -44 45 -46 0
-43 -44 -45 46 0
-1 -47 48 0
1 -48 0
47 -48 0
-49 0
46 48 49 -50 0
46 48 -49 50 0
46 -48 49 50 0
46 -48 -49 -50 0
-46 48 49 50 0
-46 48 -49 -50 0
-46 -48 49 -50 0
-46 -48 -49 50 0
-35 -50 51 0
35 -51 0
50 -51 0
-52 -2 53 0
52 -53 0
2 -53 0
-36 -6 54 0
36 -54 0
6 -54 0
37 38 -55 0
37 39 -55 0
-38 -39 55 0
38 39 -55 0
-37 -39 55 0
-37 -38 55 0
53 54 55 -56 0
53 54 -55 56 0
53 -54 55 56 0
53 -54 -55 -56 0
-53 54 55 56 0
-53 54 -55 -56 0
-53 -54 55 -56 0
-53 -54 -55 56 0
-22 -17 57 0
22 -57 0
17 -57 0
40 41 -58 0
40 42 -58 0
-41 -42 58 0
41 42 -58 0
-40 -42 58 0
-40 -41 58 0
56 57 58 -59 0
56 57 -58 59 0
56 -57 58 59 0
56 -57 -58 -59 0
-56 57 58 59 0
-56 57 -58 -59 0
-56 -57 58 -59 0
-56 -57 -58 59 0
-12 -30 60 0
12 -60 0
30 -60 0
43 44 -61 0
43 45 -61 0
-44 -45 61 0
44 45 -61 0
-43 -45 61 0
-43 -44 61 0
59 60 61 -62 0
59 60 -61 62 0
59 -60 61 62 0
59 -60 -61 -62 0
-59 60 61 62 0
-59 60 -61 -62 0
-59 -60 61 -62 0
-59 -60 -61 62 0
-4 -47 63 0
4 -63 0
47 -63 0
46 48 -64 0
46 49 -64 0
-48 -49 64 0
48 49 -64 0
-46 -49 64 0
-46 -48 64 0
62 63 64 -65 0
62 63 -64 65 0
62 -63 64 65 0
62 -63 -64 -65 0
-62 63 64 65 0
-62 63 -64 -65 0
-62 -63 64 -65 0
-62 -63 -64 65 0
-1 -66 67 0
1 -67 0
66 -67 0
-68 0
65 67 68 -69 0
65 67 -68 69 0
65 -67 68 69 0
65 -67 -68 -69 0
-65 67 68 69 0
-65 67 -68 -69 0
-65 -67 68 -69 0
-65 -67 -68 69 0
-69 -70 0
69 70 0
-51 -70 71 0
51 -71 0
70 -71 0
-72 -2 73 0
72 -73 0
2 -73 0
-52 -6 74 0
52 -74 0
6 -74 0
53 54 -75 0
53 55 -75 0
-54 -55 75 0
54 55 -75 0
-53 -55 75 0
-53 -54 75 0
73 74 75 -76 0
73 74 -75 76 0
73 -74 75 76 0
73 -74 -75 -76 0
-73 74 75 76 0
-73 74 -75 -76 0
-73 -74 75 -76 0
-73 -74 -75 76 0
-36 -17 77 0
36 -77 0
17 -77 0
56 57 -78 0
56 58 -78 0
-57 -58 78 0
57 58 -78 0
-56 -58 78 0
-56 -57 78 0
76 77 78 -79 0
76 77 -78 79 0
76 -77 78 79 0
76 -77 -78 -79 0
-76 77 78 79 0
-76 77 -78 -79 0
-76 -77 78 -79 0
-76 -77 -78 79 0
-22 -30 80 0
22 -80 0
30 -80 0
59 60 -81 0
59 61 -81 0
-60 -61 81 0
60 61 -81 0
-59 -61 81 0
-59 -60 81 0
79 80 81 -82 0
79 80 -81 82 0
79 -80 81 82 0
79 -80 -81 -82 0
-79 80 81 82 0
-79 80 -81 -82 0
-79 -80 81 -82 0
-79 -80 -81 82 0
-12 -47 83 0
12 -83 0
47 -83 0
62 63 -84 0
62 64 -84 0
-63 -64 84 0
63 64 -84 0
-62 -64 84 0
-62 -63 84 0
82 83 84 -85 0
82 83 -84 85 0
82 -83 84 85 0
82 -83 -84 -85 0
-82 83 84 85 0
-82 83 -84 -85 0
-82 -83 84 -85 0
-82 -83 -84 85 0
-4 -66 86 0
4 -86 0
66 -86 0
65 67 -87 0
65 68 -87 0
-67 -68 87 0
67 68 -87 0
-65 -68 87 0
-65 -67 87 0
85 86 87 -88 0
85 86 -87 88 0
85 -86 87 88 0
85 -86 -87 -88 0
-85 86 87 88 0
-85 86 -87 -88 0
-85 -86 87 -88 0
-85 -86 -87 88 0
-1 -89 90 0
1 -90 0
89 -90 0
-91 0
88 90 91 -92 0
88 90 -91 92 0
88 -90 91 92 0
88 -90 -91 -92 0
-88 90 91 92 0
-88 90 -91 -92 0
-88 -90 91 -92 0
-88 -90 -91 92 0
-71 -92 93 0
71 -93 0
92 -93 0
-94 -2 95 0
94 -95 0
2 -95 0
-72 -6 96 0
72 -96 0
6 -96 0
73 74 -97 0
73 75 -97 0
-74 -75 97 0
74 75 -97 0
-73 -75 97 0
-73 -74 97 0
95 96 97 -98 0
95 96 -97 98 0
95 -96 97 98 0
95 -96 -97 -98 0
-95 96 97 98 0
-95 96 -97 -98 0
-95 -96 97 -98 0
-95 -96 -97 98 0
-52 -17 99 0
52 -99 0
17 -99 0
76 77 -100 0
76 78 -100 0
-77 -78 100 0
77 78 -100 0
-76 -78 100 0
-76 -77 100 0
98 99 100 -101 0
98 99 -100 101 0
98 -99 100 101 0
98 -99 -100 -101 0
-98 99 100 101 0
-98 99 -100 -101 0
-98 -99 100 -101 0
-98 -99 -100 101 0
-36 -30 102 0
36 -102 0
30 -102 0
79 80 -103 0
79 81 -103 0
-80 -81 103 0
80 81 -103 0
-79 -81 103 0
-79 -80 103 0
101 102 103 -104 0
101 102 -103 104 0
101 -102 103 104 0
101 -102 -103 -104 0
-101 102 103 104 0
-101 102 -103 -104 0
-101 -102 103 -104 0
-101 -102 -103 104 0
-22 -47 105 0
22 -105 0
47 -105 0
82 83 -106 0
82 84 -106 0
-83 -84 106 0
83 84 -106 0
-82 -84 106 0
-82 -83 106 0
104 105 106 -107 0
104 105 -106 107 0
104 -105 106 107 0
104 -105 -106 -107 0
-104 105 106 107 0
-104 105 -106 -107 0
-104 -105 106 -107 0
-104 -105 -106 107 0
-12 -66 108 0
12 -108 0
66 -108 0
85 86 -109 0
85 87 -109 0
-86 -87 109 0
86 87 -109 0
-85 -87 109 0
-85 -86 109 0
107 108 109 -110 0
107 108 -109 110 0
107 -108 109 110 0
107 -108 -109 -110 0
-107 108 109 110 0
-107 108 -109 -110 0
-107 -108 109 -110 0
-107 -108 -109 110 0
-4 -89 111 0
4 -111 0
89 -111 0
88 90 -112 0
88 91 -112 0
-90 -91 112 0
90 91 -112 0
-88 -91 112 0
-88 -90 112 0
110 111 112 -113 0
110 111 -112 113 0
110 -111 112 113 0
110 -111 -112 -113 0
-110 111 112 113 0
-110 111 -112 -113 0
-110 -111 112 -113 0
-110 -111 -112 113 0
-1 -114 115 0
1 -115 0
114 -115 0
-116 0
113 115 116 -117 0
113 115 -116 117 0
113 -115 116 117 0
113 -115 -116 -117 0
-113 115 116 117 0
-113 115 -116 -117 0
-113 -115 116 -117 0
-113 -115 -116 117 0
-117 -118 0
117 118 0
-93 -118 119 0
93 -119 0
118 -119 0
119 0
